Au64
1.0
   4.1712885300000000    0.0000000000000000    0.0000000000000000
  -0.0000000000000000   16.6851541300000008    0.0000000000000000
   0.0000000000000000    0.0000000000000000   16.6851541300000008
Au
64
direct
   0.9502390800000000    0.0132316700000000    0.9927466999999999 Au
   0.0246005400000000    0.0052334800000000    0.2520516300000000 Au
   0.9836451100000000    0.0079260200000000    0.5055419700000000 Au
   0.9525993000000000    0.9882809299999999    0.7595440599999999 Au
   0.9809395200000001    0.2671337799999999    0.9979893900000000 Au
   0.0123707500000000    0.2387926000000000    0.2420706700000000 Au
   0.0799528600000000    0.2314515700000000    0.5025022600000000 Au
   0.9945758900000001    0.2499576400000000    0.7576926499999999 Au
   0.0205044300000000    0.5096872200000000    0.0193193300000000 Au
   0.9553015500000001    0.5033578399999999    0.2559000700000000 Au
   0.0362857200000000    0.4905586399999999    0.4967638800000000 Au
   0.0570579600000000    0.4992536100000000    0.7687713099999999 Au
   0.0011116000000000    0.7471472200000000    0.9860617999999999 Au
   0.0076284300000000    0.7418937500000000    0.2497960700000000 Au
   0.0200220100000000    0.7531721599999999    0.4782135499999999 Au
   0.0363069500000000    0.7382361600000000    0.7284294699999999 Au
   0.9770306400000001    0.1330652500000000    0.1221674000000000 Au
   0.0084029200000000    0.1385159600000000    0.3638746300000000 Au
   0.9407439300000000    0.1041567900000000    0.6479472300000000 Au
   0.9043074500000000    0.1387487900000000    0.8649894199999999 Au
   0.9561901000000000    0.3783782300000000    0.1343208400000000 Au
   0.0444109200000000    0.3783120300000000    0.3867569000000000 Au
   0.0882744200000000    0.3716901300000000    0.6309050899999999 Au
   0.9716133200000000    0.3899540800000000    0.8824563600000001 Au
   0.8888906800000000    0.6393448699999998    0.1230363800000000 Au
   0.0179547700000000    0.6208500500000000    0.3876492599999999 Au
   0.9544736500000000    0.6201353500000000    0.5950801000000000 Au
   0.0446586400000000    0.6347726000000000    0.8604547999999999 Au
   0.9965088900000000    0.8837796100000000    0.1249682200000000 Au
   0.0094428200000000    0.8804788199999999    0.3631396300000000 Au
   0.0616685600000000    0.8572099199999998    0.6246127600000000 Au
   0.0267029100000000    0.8709342200000000    0.8719267300000000 Au
   0.5169519600000000    0.0093536000000000    0.1283990500000000 Au
   0.4470430600000000    0.0208301500000000    0.3777235999999999 Au
   0.4914629500000000    0.9874241800000001    0.6416332199999999 Au
   0.4654429500000000    0.9905671000000000    0.8736895000000000 Au
   0.4724248600000000    0.2629301000000000    0.1170040200000000 Au
   0.5672079200000000    0.2488974800000000    0.3725841900000000 Au
   0.5079377500000000    0.2303710800000000    0.6251278100000000 Au
   0.4635078700000000    0.2532960200000000    0.8956530099999999 Au
   0.4135823700000000    0.5111467100000000    0.1562811900000000 Au
   0.5353200100000000    0.5012486099999999    0.3845152900000000 Au
   0.6002058200000000    0.4828551699999999    0.6444592499999999 Au
   0.5318902000000000    0.5033678800000000    0.8467022899999999 Au
   0.4057245000000000    0.7426505299999999    0.1077401900000000 Au
   0.5281810200000001    0.7530096100000000    0.3652848400000000 Au
   0.5421226700000000    0.7537970000000001    0.5953823700000000 Au
   0.5634237300000000    0.7476694899999999    0.8732901199999999 Au
   0.4681398300000000    0.1288914800000000    0.0023298200000000 Au
   0.5143261600000000    0.1349332100000000    0.2460796900000000 Au
   0.5042637300000000    0.1177871300000000    0.5137080500000000 Au
   0.4174377800000000    0.1134166200000000    0.7570734599999999 Au
   0.5021159300000000    0.4145995800000000    0.0035412300000000 Au
   0.4984181600000001    0.3757834300000000    0.2514797300000000 Au
   0.5423899000000000    0.3533983700000000    0.5069798599999999 Au
   0.5314969200000000    0.3536467600000000    0.7572773200000000 Au
   0.5199873900000000    0.6176383200000000    0.9828014200000000 Au
   0.4823969600000000    0.6240274500000000    0.2590406000000000 Au
   0.4596301300000000    0.6002683599999999    0.5192492699999999 Au
   0.5356593400000000    0.6484335299999999    0.7263925200000000 Au
   0.4712830500000000    0.8751948600000000    0.9973459099999999 Au
   0.4468597400000001    0.8760862399999999    0.2417665400000000 Au
   0.5289536600000000    0.8894266300000000    0.4933459100000001 Au
   0.5197953800000000    0.8514123300000001    0.7584381600000000 Au
