POSCAR
1.0
     4.6157637000       0.0000000000       0.0000000000
     0.0000000000       4.6157637000       0.0000000000
     0.0000000000       0.0000000000       4.6157637000
Fe Rh Si
2 2 4
Direct
     0.386000000     0.364000000     0.636000000  !Fe
     0.614000000     0.864000000     0.364000000  !Fe
     0.114000000     0.136000000     0.136000000  !Rh
     0.886000000     0.636000000     0.864000000  !Rh
     0.409000000     0.841000000     0.841000000  !Si
     0.591000000     0.341000000     0.159000000  !Si
     0.091000000     0.659000000     0.341000000  !Si
     0.909000000     0.159000000     0.659000000  !Si


! Created by the Bilbao Crystallographic Server
! http://www.cryst.ehu.es
! Date: 01/02/2025 19:25:09
