Al64
1.0
   4.0389296931824994    0.0000000000000000    0.0000000000000002
   0.0000000000000024   16.1557187727299976    0.0000000000000008
   0.0000000000000000    0.0000000000000000   16.1557187727299976
Al
64
direct
   0.0000000000000000    0.0000000000000000    0.0000000000000000 Al
   0.0000000000000000    0.0000000000000000    0.2500000000000000 Al
   0.0000000000000000    0.0000000000000000    0.5000000000000000 Al
   0.0000000000000000    0.0000000000000000    0.7500000000000000 Al
   1.0000000000000000    0.2500000000000000    1.0000000000000000 Al
   1.0000000000000000    0.2500000000000000    0.2500000000000000 Al
   1.0000000000000000    0.2500000000000000    0.5000000000000000 Al
   1.0000000000000000    0.2500000000000000    0.7500000000000000 Al
   1.0000000000000000    0.5000000000000000    1.0000000000000000 Al
   1.0000000000000000    0.5000000000000000    0.2500000000000000 Al
   1.0000000000000000    0.5000000000000000    0.5000000000000000 Al
   1.0000000000000000    0.5000000000000000    0.7500000000000000 Al
   1.0000000000000000    0.7500000000000000    1.0000000000000000 Al
   1.0000000000000000    0.7500000000000000    0.2500000000000001 Al
   1.0000000000000000    0.7500000000000000    0.5000000000000000 Al
   1.0000000000000000    0.7500000000000000    0.7500000000000000 Al
   1.0000000000000000    0.1250000000000000    0.1250000000000000 Al
   1.0000000000000000    0.1250000000000000    0.3750000000000000 Al
   1.0000000000000000    0.1250000000000000    0.6250000000000000 Al
   1.0000000000000000    0.1250000000000000    0.8750000000000000 Al
   1.0000000000000000    0.3750000000000000    0.1250000000000000 Al
   1.0000000000000000    0.3750000000000000    0.3750000000000000 Al
   1.0000000000000000    0.3750000000000000    0.6250000000000000 Al
   1.0000000000000000    0.3750000000000000    0.8750000000000000 Al
   1.0000000000000000    0.6250000000000000    0.1250000000000000 Al
   1.0000000000000000    0.6250000000000000    0.3750000000000000 Al
   1.0000000000000000    0.6250000000000000    0.6250000000000000 Al
   1.0000000000000000    0.6250000000000000    0.8750000000000000 Al
   1.0000000000000000    0.8750000000000000    0.1250000000000000 Al
   1.0000000000000000    0.8750000000000000    0.3750000000000000 Al
   1.0000000000000000    0.8750000000000000    0.6250000000000000 Al
   1.0000000000000000    0.8750000000000000    0.8750000000000000 Al
   0.5000000000000000    0.0000000000000000    0.1250000000000000 Al
   0.5000000000000000    0.0000000000000000    0.3750000000000000 Al
   0.5000000000000000    0.0000000000000000    0.6250000000000000 Al
   0.5000000000000000    0.0000000000000000    0.8750000000000000 Al
   0.4999999999999999    0.2500000000000000    0.1250000000000000 Al
   0.4999999999999999    0.2500000000000000    0.3750000000000000 Al
   0.4999999999999999    0.2500000000000000    0.6250000000000000 Al
   0.4999999999999999    0.2500000000000000    0.8750000000000000 Al
   0.5000000000000000    0.5000000000000000    0.1250000000000000 Al
   0.5000000000000000    0.5000000000000000    0.3750000000000000 Al
   0.5000000000000000    0.5000000000000000    0.6250000000000000 Al
   0.5000000000000000    0.5000000000000000    0.8750000000000000 Al
   0.5000000000000000    0.7500000000000000    0.1250000000000000 Al
   0.5000000000000000    0.7500000000000000    0.3750000000000000 Al
   0.5000000000000000    0.7500000000000000    0.6250000000000000 Al
   0.5000000000000000    0.7500000000000000    0.8750000000000000 Al
   0.5000000000000000    0.1250000000000000    1.0000000000000000 Al
   0.5000000000000000    0.1250000000000000    0.2500000000000000 Al
   0.5000000000000000    0.1250000000000000    0.5000000000000000 Al
   0.5000000000000000    0.1250000000000000    0.7500000000000000 Al
   0.5000000000000000    0.3750000000000000    1.0000000000000000 Al
   0.5000000000000000    0.3750000000000000    0.2500000000000000 Al
   0.5000000000000000    0.3750000000000000    0.5000000000000000 Al
   0.5000000000000000    0.3750000000000000    0.7500000000000000 Al
   0.5000000000000001    0.6250000000000000    1.0000000000000000 Al
   0.5000000000000001    0.6250000000000000    0.2500000000000000 Al
   0.5000000000000001    0.6250000000000000    0.5000000000000000 Al
   0.5000000000000001    0.6250000000000000    0.7500000000000000 Al
   0.5000000000000000    0.8750000000000000    1.0000000000000000 Al
   0.5000000000000000    0.8750000000000000    0.2500000000000000 Al
   0.5000000000000000    0.8750000000000000    0.4999999999999999 Al
   0.5000000000000000    0.8750000000000000    0.7500000000000000 Al
