Au64
1.0
   4.1712885314747270    0.0000000000000000    0.0000000000000003
  -0.0000000000000012   16.6851541258989080    0.0000000000000012
   0.0000000000000000    0.0000000000000000   16.6851541258989080
Au
64
direct
   0.0000000000000000    0.0000000000000000    0.0000000000000000 Au
   0.0000000000000000    0.0000000000000000    0.2500000000000000 Au
   0.0000000000000000    0.0000000000000000    0.5000000000000000 Au
   0.0000000000000000    0.0000000000000000    0.7500000000000000 Au
   0.0000000000000000    0.2500000000000000    1.0000000000000000 Au
   0.0000000000000000    0.2500000000000000    0.2500000000000000 Au
   0.0000000000000000    0.2500000000000000    0.5000000000000000 Au
   0.0000000000000000    0.2500000000000000    0.7500000000000000 Au
   0.0000000000000000    0.5000000000000000    1.0000000000000000 Au
   0.0000000000000000    0.5000000000000000    0.2500000000000000 Au
   0.0000000000000000    0.5000000000000000    0.4999999999999999 Au
   0.0000000000000000    0.5000000000000000    0.7500000000000000 Au
   0.0000000000000000    0.7500000000000000    1.0000000000000000 Au
   0.0000000000000000    0.7500000000000000    0.2500000000000000 Au
   0.0000000000000000    0.7500000000000000    0.5000000000000000 Au
   0.0000000000000000    0.7500000000000000    0.7500000000000000 Au
   0.0000000000000000    0.1250000000000000    0.1250000000000000 Au
   0.0000000000000000    0.1250000000000000    0.3750000000000000 Au
   0.0000000000000000    0.1250000000000000    0.6250000000000000 Au
   0.0000000000000000    0.1250000000000000    0.8750000000000000 Au
   0.0000000000000000    0.3750000000000000    0.1250000000000000 Au
   0.0000000000000000    0.3750000000000000    0.3750000000000000 Au
   0.0000000000000000    0.3750000000000000    0.6250000000000000 Au
   0.0000000000000000    0.3750000000000000    0.8750000000000000 Au
   0.0000000000000000    0.6250000000000000    0.1250000000000000 Au
   0.0000000000000000    0.6250000000000000    0.3750000000000000 Au
   0.0000000000000000    0.6250000000000000    0.6249999999999999 Au
   0.0000000000000000    0.6250000000000000    0.8750000000000000 Au
   1.0000000000000000    0.8750000000000000    0.1250000000000000 Au
   1.0000000000000000    0.8750000000000000    0.3749999999999999 Au
   1.0000000000000000    0.8750000000000000    0.6250000000000000 Au
   1.0000000000000000    0.8750000000000000    0.8750000000000000 Au
   0.5000000000000000    0.0000000000000000    0.1250000000000000 Au
   0.5000000000000000    0.0000000000000000    0.3750000000000000 Au
   0.5000000000000000    0.0000000000000000    0.6250000000000000 Au
   0.5000000000000000    0.0000000000000000    0.8750000000000000 Au
   0.4999999999999999    0.2500000000000000    0.1250000000000000 Au
   0.4999999999999999    0.2500000000000000    0.3750000000000000 Au
   0.4999999999999999    0.2500000000000000    0.6250000000000000 Au
   0.4999999999999999    0.2500000000000000    0.8750000000000000 Au
   0.5000000000000000    0.5000000000000000    0.1250000000000000 Au
   0.5000000000000000    0.5000000000000000    0.3750000000000000 Au
   0.5000000000000000    0.5000000000000000    0.6249999999999999 Au
   0.5000000000000000    0.5000000000000000    0.8750000000000000 Au
   0.5000000000000000    0.7500000000000000    0.1250000000000000 Au
   0.5000000000000000    0.7500000000000000    0.3749999999999999 Au
   0.5000000000000000    0.7500000000000000    0.6250000000000000 Au
   0.5000000000000000    0.7500000000000000    0.8750000000000000 Au
   0.5000000000000000    0.1250000000000000    1.0000000000000000 Au
   0.5000000000000000    0.1250000000000000    0.2500000000000000 Au
   0.5000000000000000    0.1250000000000000    0.5000000000000000 Au
   0.5000000000000000    0.1250000000000000    0.7500000000000000 Au
   0.5000000000000000    0.3750000000000000    1.0000000000000000 Au
   0.5000000000000000    0.3750000000000000    0.2500000000000000 Au
   0.5000000000000000    0.3750000000000000    0.4999999999999999 Au
   0.5000000000000000    0.3750000000000000    0.7500000000000000 Au
   0.5000000000000001    0.6250000000000000    0.0000000000000000 Au
   0.5000000000000001    0.6250000000000000    0.2500000000000000 Au
   0.5000000000000001    0.6250000000000000    0.4999999999999999 Au
   0.5000000000000001    0.6250000000000000    0.7500000000000000 Au
   0.5000000000000000    0.8750000000000000    1.0000000000000000 Au
   0.5000000000000000    0.8750000000000000    0.2500000000000000 Au
   0.5000000000000000    0.8750000000000000    0.5000000000000000 Au
   0.5000000000000000    0.8750000000000000    0.7500000000000000 Au
