Au64
1.0
   4.1712885300000000    0.0000000000000000    0.0000000000000000
  -0.0000000000000000   16.6851541300000008    0.0000000000000000
   0.0000000000000000    0.0000000000000000   16.6851541300000008
Au
64
direct
   0.9908394399999999    0.0014604400000000    0.9983409199999999 Au
   0.9896356400000000    0.0017598400000000    0.2521031599999999 Au
   0.0117477900000000    0.0007476700000000    0.4971723500000000 Au
   0.0035501600000000    0.0003285100000000    0.7490371199999999 Au
   0.0023828000000000    0.2513093400000000    0.9995474900000000 Au
   0.9997942700000000    0.2513929600000000    0.2495142900000000 Au
   0.9964915200000000    0.2476447100000000    0.4967325500000000 Au
   0.9989400900000001    0.2484876900000000    0.7516509200000000 Au
   0.9993107500000001    0.4972429800000000    0.9970768399999999 Au
   0.9940135399999999    0.5017747600000000    0.2497567600000000 Au
   0.0025534800000000    0.5036058500000000    0.5019320000000000 Au
   0.0024677400000000    0.5009930200000000    0.7498104100000000 Au
   0.0049685900000000    0.7493137699999999    0.0020026600000000 Au
   0.0108123700000000    0.7496502400000000    0.2494598100000000 Au
   0.9923032200000002    0.7494240800000000    0.5012813400000000 Au
   0.9988064700000000    0.7514652800000000    0.7479076200000000 Au
   0.9995608000000000    0.1241541000000000    0.1224277100000000 Au
   0.9931244000000000    0.1241905300000000    0.3773057200000000 Au
   0.9977345800000000    0.1242182600000000    0.6268823800000000 Au
   0.9951136800000001    0.1248749800000000    0.8785122000000000 Au
   0.0076153800000000    0.3735114900000000    0.1255348400000000 Au
   0.9961999700000002    0.3770114099999999    0.3771499600000000 Au
   0.0052605900000000    0.3732199899999999    0.6276270700000000 Au
   0.9964794100000001    0.3776214100000000    0.8747684900000000 Au
   0.9986509800000000    0.6242593100000000    0.1261684500000000 Au
   0.0018163500000000    0.6243009200000000    0.3750268200000000 Au
   0.9968829200000001    0.6234643599999999    0.6250998399999999 Au
   0.9965511800000000    0.6277868800000000    0.8739360400000000 Au
   0.9925521300000000    0.8735849100000000    0.1248953300000000 Au
   0.9981256800000000    0.8745973900000000    0.3745432000000000 Au
   0.9976130800000000    0.8742941700000000    0.6250703200000000 Au
   0.0073135000000000    0.8780927200000000    0.8753089400000000 Au
   0.5031690000000000    0.0009254500000000    0.1256775700000000 Au
   0.4970693600000000    0.9981508600000000    0.3726273100000000 Au
   0.4955268000000000    0.9980663399999999    0.6256385800000001 Au
   0.4970253500000000    0.9987075600000002    0.8764992799999999 Au
   0.4951992299999999    0.2521238100000000    0.1256073100000000 Au
   0.5018548700000000    0.2512047400000000    0.3736826600000000 Au
   0.4952197600000001    0.2515967100000000    0.6258207200000000 Au
   0.5017899900000001    0.2498919500000000    0.8735605800000000 Au
   0.4903121400000000    0.4988767200000001    0.1256719500000000 Au
   0.5022333100000000    0.5018115999999999    0.3731287899999999 Au
   0.5143249800000000    0.5020724800000000    0.6263783000000001 Au
   0.4907269000000000    0.5014725400000000    0.8768734000000000 Au
   0.4931204100000000    0.7491904400000000    0.1232983700000000 Au
   0.4923298900000000    0.7481143600000000    0.3768298200000000 Au
   0.4992502500000001    0.7506400199999999    0.6237398600000000 Au
   0.4930553900000000    0.7492326499999999    0.8735604400000000 Au
   0.4967672400000000    0.1203837900000000    0.9970992700000000 Au
   0.5039543800000000    0.1277651900000000    0.2501848099999999 Au
   0.5155313500000001    0.1254316600000000    0.5006266400000000 Au
   0.4959037600000000    0.1258818100000000    0.7529049399999999 Au
   0.5033165800000000    0.3724273300000000    0.0008751900000000 Au
   0.5110617900000000    0.3735553999999999    0.2485501200000000 Au
   0.5016234300000000    0.3782789900000000    0.5008537100000000 Au
   0.5092399399999999    0.3728667100000000    0.7480428799999999 Au
   0.4976115800000000    0.6262021700000000    0.9998590100000000 Au
   0.5076419400000000    0.6262879799999999    0.2480191300000000 Au
   0.5139077300000000    0.6236013900000000    0.4990060599999999 Au
   0.4984240300000000    0.6234394400000000    0.7522885899999999 Au
   0.5000075000000002    0.8748306600000000    0.9982632699999999 Au
   0.4963441400000000    0.8739495500000000    0.2507638200000000 Au
   0.5056842200000000    0.8752369199999999    0.4977093000000000 Au
   0.5015602500000000    0.8719988000000000    0.7527747999999999 Au
