Au64
1.0
   4.1712885300000000    0.0000000000000000    0.0000000000000000
  -0.0000000000000000   16.6851541300000008    0.0000000000000000
   0.0000000000000000    0.0000000000000000   16.6851541300000008
Au
64
direct
   0.0089267700000000    0.0030820100000000    0.9983694200000000 Au
   0.9695764700000000    0.0017603700000000    0.2612357900000000 Au
   0.9957035900000001    0.9946412899999999    0.5055407200000001 Au
   0.0083215400000000    0.0047565000000000    0.7530735599999999 Au
   0.9756368900000000    0.2477725700000000    0.0024422400000000 Au
   0.0114479400000000    0.2542690600000000    0.2501858600000000 Au
   0.0232339900000000    0.2486346600000000    0.4942574300000000 Au
   0.0061883500000000    0.2527850900000000    0.7465263299999999 Au
   0.0062901200000000    0.4985726500000000    0.0056819400000000 Au
   0.9794300500000001    0.4954078700000000    0.2490025700000000 Au
   0.0484316500000000    0.4966674700000000    0.4988614000000000 Au
   0.0205540700000000    0.5009951099999999    0.7482170299999998 Au
   0.0120554600000000    0.7508161099999999    0.9943321199999999 Au
   0.9965188000000001    0.7522382099999999    0.2469558900000000 Au
   0.0262317600000000    0.7474321900000001    0.4958731100000000 Au
   0.9959815299999999    0.7479353500000000    0.7479834700000000 Au
   0.0152343300000000    0.1267281600000000    0.1207638000000000 Au
   0.9906534700000000    0.1223858500000000    0.3760419200000000 Au
   0.9829929800000000    0.1195947800000000    0.6231994100000000 Au
   0.9544618900000000    0.1270551400000000    0.8725194599999999 Au
   0.0106539900000000    0.3727298600000000    0.1240353600000000 Au
   0.0145094500000000    0.3765104500000000    0.3727017699999999 Au
   0.0123267500000000    0.3820314799999999    0.6313750000000000 Au
   0.9768863500000001    0.3755408100000000    0.8723609200000000 Au
   0.9636806100000000    0.6252139699999999    0.1219828000000000 Au
   0.0050648900000000    0.6274121800000000    0.3759529500000000 Au
   0.9642426600000001    0.6207611300000000    0.6264609799999999 Au
   0.0198995800000000    0.6286516499999999    0.8699889899999999 Au
   0.0085857500000000    0.8772294400000000    0.1264986300000000 Au
   0.0056753700000000    0.8748593200000000    0.3761619100000000 Au
   0.0029982400000000    0.8751796799999999    0.6185471000000000 Au
   0.0165774500000000    0.8654190099999999    0.8729889599999999 Au
   0.4969062400000000    0.9988586399999999    0.1258972800000000 Au
   0.5227430100000000    0.9999960900000000    0.3764236799999999 Au
   0.5015941400000000    0.9894476799999999    0.6246069099999999 Au
   0.4961677400000000    0.0042372900000000    0.8745752000000000 Au
   0.4827826700000000    0.2580400999999999    0.1257997200000000 Au
   0.4822072500000000    0.2506925200000000    0.3803767800000000 Au
   0.5010490300000000    0.2481122200000000    0.6227945600000000 Au
   0.5174656300000000    0.2533233200000000    0.8775569500000000 Au
   0.5112287400000000    0.5045011600000000    0.1274190700000000 Au
   0.4686145200000000    0.4983118200000000    0.3840940500000000 Au
   0.5001112000000000    0.4954328599999999    0.6249029599999999 Au
   0.5147981400000001    0.4960335100000000    0.8640248200000000 Au
   0.4680540700000000    0.7479503100000000    0.1287848900000000 Au
   0.4930495300000000    0.7584552199999999    0.3752455900000000 Au
   0.5170392600000000    0.7605981400000000    0.6175423200000000 Au
   0.4942324800000000    0.7541433800000000    0.8724144200000000 Au
   0.4979517700000001    0.1216586600000000    0.0013100500000000 Au
   0.4998375600000000    0.1222763300000000    0.2466822600000000 Au
   0.5088878300000000    0.1325842800000000    0.4983472600000000 Au
   0.4650233000000000    0.1240132400000000    0.7530133399999999 Au
   0.4900071900000000    0.3909007200000000    0.9921763000000000 Au
   0.5000566700000000    0.3667094599999999    0.2544155700000000 Au
   0.5405026800000000    0.3716695000000000    0.5081307800000000 Au
   0.5238255500000000    0.3777071700000000    0.7543125200000000 Au
   0.5082955200000000    0.6156774000000000    0.9967964100000001 Au
   0.4928192100000000    0.6320215400000000    0.2568645800000000 Au
   0.4817917400000000    0.6238725700000000    0.5111017600000000 Au
   0.5005782200000000    0.6166840099999998    0.7466583399999999 Au
   0.4639787200000001    0.8800637900000000    0.0047589000000000 Au
   0.5260797600000000    0.8677736899999999    0.2481715800000000 Au
   0.4865306600000000    0.8786586199999999    0.4975440600000000 Au
   0.5168172100000000    0.8645253199999999    0.7471382300000000 Au
