Ni64
1.0
   3.4751458659480110    0.0000000000000000    0.0000000000000002
  -0.0000000000000008   13.9005834637920440    0.0000000000000008
   0.0000000000000000    0.0000000000000000   13.9005834637920440
Ni
64
direct
   0.0000000000000000    0.0000000000000000    0.0000000000000000 Ni
   0.0000000000000000    0.0000000000000000    0.2500000000000000 Ni
   0.0000000000000000    0.0000000000000000    0.5000000000000000 Ni
   0.0000000000000000    0.0000000000000000    0.7499999999999999 Ni
   1.0000000000000000    0.2500000000000000    0.0000000000000000 Ni
   1.0000000000000000    0.2500000000000000    0.2500000000000000 Ni
   1.0000000000000000    0.2500000000000000    0.4999999999999999 Ni
   1.0000000000000000    0.2500000000000000    0.7499999999999999 Ni
   1.0000000000000000    0.5000000000000000    0.0000000000000000 Ni
   1.0000000000000000    0.5000000000000000    0.2500000000000000 Ni
   1.0000000000000000    0.5000000000000000    0.4999999999999999 Ni
   1.0000000000000000    0.5000000000000000    0.7499999999999999 Ni
   1.0000000000000000    0.7499999999999999    0.0000000000000000 Ni
   1.0000000000000000    0.7499999999999999    0.2500000000000000 Ni
   1.0000000000000000    0.7499999999999999    0.5000000000000000 Ni
   1.0000000000000000    0.7499999999999999    0.7500000000000000 Ni
   1.0000000000000000    0.1250000000000000    0.1250000000000000 Ni
   1.0000000000000000    0.1250000000000000    0.3749999999999999 Ni
   1.0000000000000000    0.1250000000000000    0.6249999999999999 Ni
   1.0000000000000000    0.1250000000000000    0.8749999999999999 Ni
   1.0000000000000000    0.3749999999999999    0.1250000000000000 Ni
   1.0000000000000000    0.3749999999999999    0.3749999999999999 Ni
   1.0000000000000000    0.3749999999999999    0.6249999999999999 Ni
   1.0000000000000000    0.3749999999999999    0.8749999999999999 Ni
   1.0000000000000000    0.6249999999999999    0.1250000000000000 Ni
   1.0000000000000000    0.6249999999999999    0.3750000000000000 Ni
   1.0000000000000000    0.6249999999999999    0.6249999999999999 Ni
   1.0000000000000000    0.6249999999999999    0.8749999999999999 Ni
   0.0000000000000000    0.8749999999999999    0.1250000000000000 Ni
   0.0000000000000000    0.8749999999999999    0.3750000000000000 Ni
   0.0000000000000000    0.8749999999999999    0.6250000000000000 Ni
   0.0000000000000000    0.8749999999999999    0.8750000000000000 Ni
   0.5000000000000000    0.0000000000000000    0.1250000000000000 Ni
   0.5000000000000000    0.0000000000000000    0.3749999999999999 Ni
   0.5000000000000000    0.0000000000000000    0.6249999999999999 Ni
   0.5000000000000000    0.0000000000000000    0.8749999999999999 Ni
   0.4999999999999999    0.2500000000000000    0.1250000000000000 Ni
   0.4999999999999999    0.2500000000000000    0.3749999999999999 Ni
   0.4999999999999999    0.2500000000000000    0.6249999999999999 Ni
   0.4999999999999999    0.2500000000000000    0.8749999999999999 Ni
   0.4999999999999999    0.5000000000000000    0.1250000000000000 Ni
   0.4999999999999999    0.5000000000000000    0.3750000000000000 Ni
   0.4999999999999999    0.5000000000000000    0.6249999999999999 Ni
   0.4999999999999999    0.5000000000000000    0.8749999999999999 Ni
   0.4999999999999999    0.7499999999999999    0.1250000000000000 Ni
   0.4999999999999999    0.7499999999999999    0.3750000000000000 Ni
   0.4999999999999999    0.7499999999999999    0.6250000000000000 Ni
   0.4999999999999999    0.7499999999999999    0.8750000000000000 Ni
   0.5000000000000000    0.1250000000000000    0.0000000000000000 Ni
   0.5000000000000000    0.1250000000000000    0.2500000000000000 Ni
   0.5000000000000000    0.1250000000000000    0.4999999999999999 Ni
   0.5000000000000000    0.1250000000000000    0.7499999999999999 Ni
   0.5000000000000000    0.3749999999999999    0.0000000000000000 Ni
   0.5000000000000000    0.3749999999999999    0.2500000000000000 Ni
   0.5000000000000000    0.3749999999999999    0.4999999999999999 Ni
   0.5000000000000000    0.3749999999999999    0.7499999999999999 Ni
   0.5000000000000000    0.6249999999999999    0.0000000000000000 Ni
   0.5000000000000000    0.6249999999999999    0.2500000000000000 Ni
   0.5000000000000000    0.6249999999999999    0.4999999999999999 Ni
   0.5000000000000000    0.6249999999999999    0.7499999999999999 Ni
   0.5000000000000000    0.8749999999999999    0.0000000000000000 Ni
   0.5000000000000000    0.8749999999999999    0.2500000000000000 Ni
   0.5000000000000000    0.8749999999999999    0.5000000000000000 Ni
   0.5000000000000000    0.8749999999999999    0.7500000000000000 Ni
