Au64
1.0
   4.1712885300000000    0.0000000000000000    0.0000000000000000
  -0.0000000000000000   16.6851541300000008    0.0000000000000000
   0.0000000000000000    0.0000000000000000   16.6851541300000008
Au
64
direct
   0.0032080400000000    0.0010792800000000    0.9994662800000000 Au
   0.9894352799999999    0.0006202300000000    0.2538483000000000 Au
   0.9984882000000002    0.9981146899999999    0.5018992799999999 Au
   0.0029429300000000    0.0016916600000000    0.7510404100000000 Au
   0.9917114000000000    0.2492095900000000    0.0008443700000000 Au
   0.0040380800000000    0.2515177700000000    0.2500510599999999 Au
   0.0079883700000000    0.2495073400000000    0.4980259300000000 Au
   0.0020364000000000    0.2509368700000000    0.7488553999999999 Au
   0.0021002600000000    0.4995116700000000    0.0019640600000000 Au
   0.9930663600000000    0.4984102000000000    0.2496406500000000 Au
   0.0167854700000000    0.4988979499999999    0.4995899100000000 Au
   0.0069593000000000    0.5003173100000000    0.7493772600000000 Au
   0.0042840700000000    0.7503242299999999    0.9980494900000000 Au
   0.9988386299999999    0.7507736299999999    0.2489711900000000 Au
   0.0090652900000000    0.7491746000000000    0.4986256700000000 Au
   0.9985581200000001    0.7493619299999998    0.7493992400000000 Au
   0.0052447100000000    0.1255806200000000    0.1235265500000000 Au
   0.9967234500000001    0.1240997500000000    0.3753645700000000 Au
   0.9942599700000000    0.1231848100000000    0.6243852000000000 Au
   0.9844569700000000    0.1256416300000000    0.8741482600000000 Au
   0.0036952300000000    0.3741947199999999    0.1246960900000000 Au
   0.0051249600000000    0.3755113800000000    0.3741911199999999 Au
   0.0040693900000000    0.3774336600000000    0.6271564500000000 Au
   0.9918215100000001    0.3752258100000000    0.8740582599999999 Au
   0.9876313100000000    0.6250318100000000    0.1239659200000000 Au
   0.0019007200000000    0.6258216200000000    0.3753179699999999 Au
   0.9878462400000000    0.6235114700000000    0.6254956300000000 Au
   0.0067465900000000    0.6262493400000000    0.8732719600000000 Au
   0.0030784300000000    0.8757199500000000    0.1254997800000000 Au
   0.0018920100000000    0.8749376400000000    0.3754060799999999 Au
   0.0009562500000000    0.8750815399999999    0.6227544900000000 Au
   0.0057869500000000    0.8716555799999999    0.8743255499999999 Au
   0.4988865400000000    0.9996208199999999    0.1252511000000000 Au
   0.5080064600000000    0.9999941500000000    0.3754426800000000 Au
   0.5005671400000000    0.9963959300000000    0.6248053000000000 Au
   0.4987310099999999    0.0015285700000000    0.8748622799999999 Au
   0.4940323900000000    0.2527329300000000    0.1253056600000000 Au
   0.4937418100000000    0.2502428200000000    0.3768652300000000 Au
   0.5003262300000000    0.2493668900000000    0.6242101100000000 Au
   0.5062319400000000    0.2511168200000000    0.8758339399999999 Au
   0.5039894200000000    0.5015508100000000    0.1257448400000000 Au
   0.4889428300000001    0.4993935700000000    0.3781411100000000 Au
   0.4998866800000000    0.4984679100000000    0.6249803400000000 Au
   0.5050501800000001    0.4985663900000000    0.8712351800000000 Au
   0.4891455400000000    0.7493368300000000    0.1263577200000000 Au
   0.4974842700000000    0.7528896000000000    0.3750579800000000 Au
   0.5057771800000000    0.7536497799999999    0.6224756400000000 Au
   0.4978103900000000    0.7514588099999999    0.8740862900000000 Au
   0.4993492800000000    0.1238225300000000    0.0004395700000000 Au
   0.5000299100000000    0.1240431300000000    0.2489019000000000 Au
   0.5030157500000000    0.1276393100000000    0.4994193900000000 Au
   0.4881951700000000    0.1246257500000000    0.7510637800000000 Au
   0.4966771600000000    0.3804106300000000    0.9973390500000000 Au
   0.4998725099999999    0.3721515100000000    0.2514899000000000 Au
   0.5135280800000001    0.3738786700000000    0.5027512000000000 Au
   0.5081941200000000    0.3760122300000000    0.7515182500000001 Au
   0.5028230900000000    0.6218030700000000    0.9989804600000001 Au
   0.4976166900000000    0.6274357600000000    0.2522950300000000 Au
   0.4936548299999999    0.6245922099999999    0.5037610800000000 Au
   0.5002144900000000    0.6221279400000000    0.7488851700000000 Au
   0.4875391400000000    0.8766993600000000    0.0016258900000000 Au
   0.5089348500000000    0.8725012399999998    0.2493940100000000 Au
   0.4953339200000000    0.8762261300000000    0.4992365999999999 Au
   0.5056701200000000    0.8713876100000000    0.7490309300000000 Au
