Na64
1.0
   3.6887707040711284   -6.3891382769228144    0.0000000000000000
   7.3775414081422568   12.7782765538456289    0.0000000000000000
   0.0000000000000000    0.0000000000000000   25.0767759999999988
Na
64
direct
   0.1666666666666665    0.1666666666666665    0.0625000000000000 Na
   0.1666666666666665    0.1666666666666665    0.3124999999999999 Na
   0.1666666666666665    0.1666666666666665    0.5625000000000000 Na
   0.1666666666666665    0.1666666666666665    0.8125000000000000 Na
   0.1666666666666666    0.4166666666666666    0.0625000000000000 Na
   0.1666666666666666    0.4166666666666666    0.3124999999999999 Na
   0.1666666666666666    0.4166666666666666    0.5625000000000000 Na
   0.1666666666666666    0.4166666666666666    0.8125000000000000 Na
   0.1666666666666665    0.6666666666666665    0.0625000000000000 Na
   0.1666666666666665    0.6666666666666665    0.3124999999999999 Na
   0.1666666666666665    0.6666666666666665    0.5625000000000000 Na
   0.1666666666666665    0.6666666666666665    0.8125000000000000 Na
   0.1666666666666665    0.9166666666666666    0.0625000000000000 Na
   0.1666666666666665    0.9166666666666666    0.3124999999999999 Na
   0.1666666666666665    0.9166666666666666    0.5625000000000000 Na
   0.1666666666666665    0.9166666666666666    0.8125000000000000 Na
   0.6666666666666665    0.1666666666666665    0.0625000000000000 Na
   0.6666666666666665    0.1666666666666665    0.3124999999999999 Na
   0.6666666666666665    0.1666666666666665    0.5625000000000000 Na
   0.6666666666666665    0.1666666666666665    0.8125000000000000 Na
   0.6666666666666665    0.4166666666666665    0.0625000000000000 Na
   0.6666666666666665    0.4166666666666665    0.3124999999999999 Na
   0.6666666666666665    0.4166666666666665    0.5625000000000000 Na
   0.6666666666666665    0.4166666666666665    0.8125000000000000 Na
   0.6666666666666666    0.6666666666666666    0.0625000000000000 Na
   0.6666666666666666    0.6666666666666666    0.3124999999999999 Na
   0.6666666666666666    0.6666666666666666    0.5625000000000000 Na
   0.6666666666666666    0.6666666666666666    0.8125000000000000 Na
   0.6666666666666665    0.9166666666666665    0.0625000000000000 Na
   0.6666666666666665    0.9166666666666665    0.3124999999999999 Na
   0.6666666666666665    0.9166666666666665    0.5625000000000000 Na
   0.6666666666666665    0.9166666666666665    0.8125000000000000 Na
   0.3333333333333330    0.0833333333333332    0.1875000000000000 Na
   0.3333333333333330    0.0833333333333332    0.4375000000000000 Na
   0.3333333333333330    0.0833333333333332    0.6875000000000000 Na
   0.3333333333333330    0.0833333333333332    0.9374999999999999 Na
   0.3333333333333331    0.3333333333333333    0.1875000000000000 Na
   0.3333333333333331    0.3333333333333333    0.4375000000000000 Na
   0.3333333333333331    0.3333333333333333    0.6875000000000000 Na
   0.3333333333333331    0.3333333333333333    0.9374999999999999 Na
   0.3333333333333330    0.5833333333333333    0.1875000000000000 Na
   0.3333333333333330    0.5833333333333333    0.4375000000000000 Na
   0.3333333333333330    0.5833333333333333    0.6875000000000000 Na
   0.3333333333333330    0.5833333333333333    0.9374999999999999 Na
   0.3333333333333332    0.8333333333333333    0.1875000000000000 Na
   0.3333333333333332    0.8333333333333333    0.4375000000000000 Na
   0.3333333333333332    0.8333333333333333    0.6875000000000000 Na
   0.3333333333333332    0.8333333333333333    0.9374999999999999 Na
   0.8333333333333331    0.0833333333333333    0.1875000000000000 Na
   0.8333333333333331    0.0833333333333333    0.4375000000000000 Na
   0.8333333333333331    0.0833333333333333    0.6875000000000000 Na
   0.8333333333333331    0.0833333333333333    0.9374999999999999 Na
   0.8333333333333330    0.3333333333333333    0.1875000000000000 Na
   0.8333333333333330    0.3333333333333333    0.4375000000000000 Na
   0.8333333333333330    0.3333333333333333    0.6875000000000000 Na
   0.8333333333333330    0.3333333333333333    0.9374999999999999 Na
   0.8333333333333331    0.5833333333333333    0.1875000000000000 Na
   0.8333333333333331    0.5833333333333333    0.4375000000000000 Na
   0.8333333333333331    0.5833333333333333    0.6875000000000000 Na
   0.8333333333333331    0.5833333333333333    0.9374999999999999 Na
   0.8333333333333330    0.8333333333333333    0.1875000000000000 Na
   0.8333333333333330    0.8333333333333333    0.4375000000000000 Na
   0.8333333333333330    0.8333333333333333    0.6875000000000000 Na
   0.8333333333333330    0.8333333333333333    0.9374999999999999 Na
