Cu64
1.0
   3.5774306715697510    0.0000000000000000    0.0000000000000002
  -0.0000000000000008   14.3097226862790041    0.0000000000000008
   0.0000000000000000    0.0000000000000000   14.3097226862790041
Cu
64
direct
   0.0000000000000000    0.0000000000000000    0.0000000000000000 Cu
   0.0000000000000000    0.0000000000000000    0.2500000000000000 Cu
   0.0000000000000000    0.0000000000000000    0.4999999999999999 Cu
   0.0000000000000000    0.0000000000000000    0.7500000000000000 Cu
   0.0000000000000000    0.2500000000000000    1.0000000000000000 Cu
   0.0000000000000000    0.2500000000000000    0.2500000000000000 Cu
   0.0000000000000000    0.2500000000000000    0.4999999999999999 Cu
   0.0000000000000000    0.2500000000000000    0.7500000000000000 Cu
   0.0000000000000000    0.4999999999999999    1.0000000000000000 Cu
   0.0000000000000000    0.4999999999999999    0.2500000000000000 Cu
   0.0000000000000000    0.4999999999999999    0.4999999999999999 Cu
   0.0000000000000000    0.4999999999999999    0.7500000000000000 Cu
   0.0000000000000000    0.7500000000000000    1.0000000000000000 Cu
   0.0000000000000000    0.7500000000000000    0.2500000000000000 Cu
   0.0000000000000000    0.7500000000000000    0.5000000000000000 Cu
   0.0000000000000000    0.7500000000000000    0.7499999999999999 Cu
   0.0000000000000000    0.1250000000000000    0.1250000000000000 Cu
   0.0000000000000000    0.1250000000000000    0.3750000000000000 Cu
   0.0000000000000000    0.1250000000000000    0.6250000000000000 Cu
   0.0000000000000000    0.1250000000000000    0.8750000000000000 Cu
   0.0000000000000000    0.3750000000000000    0.1250000000000000 Cu
   0.0000000000000000    0.3750000000000000    0.3749999999999999 Cu
   0.0000000000000000    0.3750000000000000    0.6250000000000000 Cu
   0.0000000000000000    0.3750000000000000    0.8749999999999999 Cu
   0.0000000000000000    0.6250000000000000    0.1250000000000000 Cu
   0.0000000000000000    0.6250000000000000    0.3749999999999999 Cu
   0.0000000000000000    0.6250000000000000    0.6250000000000000 Cu
   0.0000000000000000    0.6250000000000000    0.8749999999999999 Cu
   0.0000000000000000    0.8750000000000000    0.1250000000000000 Cu
   0.0000000000000000    0.8750000000000000    0.3749999999999999 Cu
   0.0000000000000000    0.8750000000000000    0.6250000000000000 Cu
   0.0000000000000000    0.8750000000000000    0.8749999999999999 Cu
   0.4999999999999999    0.0000000000000000    0.1250000000000000 Cu
   0.4999999999999999    0.0000000000000000    0.3750000000000000 Cu
   0.4999999999999999    0.0000000000000000    0.6250000000000000 Cu
   0.4999999999999999    0.0000000000000000    0.8750000000000000 Cu
   0.4999999999999999    0.2500000000000000    0.1250000000000000 Cu
   0.4999999999999999    0.2500000000000000    0.3749999999999999 Cu
   0.4999999999999999    0.2500000000000000    0.6250000000000000 Cu
   0.4999999999999999    0.2500000000000000    0.8749999999999999 Cu
   0.4999999999999999    0.4999999999999999    0.1250000000000000 Cu
   0.4999999999999999    0.4999999999999999    0.3749999999999999 Cu
   0.4999999999999999    0.4999999999999999    0.6250000000000000 Cu
   0.4999999999999999    0.4999999999999999    0.8749999999999999 Cu
   0.4999999999999999    0.7500000000000000    0.1250000000000000 Cu
   0.4999999999999999    0.7500000000000000    0.3749999999999999 Cu
   0.4999999999999999    0.7500000000000000    0.6250000000000000 Cu
   0.4999999999999999    0.7500000000000000    0.8749999999999999 Cu
   0.5000000000000000    0.1250000000000000    1.0000000000000000 Cu
   0.5000000000000000    0.1250000000000000    0.2500000000000000 Cu
   0.5000000000000000    0.1250000000000000    0.4999999999999999 Cu
   0.5000000000000000    0.1250000000000000    0.7500000000000000 Cu
   0.5000000000000000    0.3750000000000000    1.0000000000000000 Cu
   0.5000000000000000    0.3750000000000000    0.2499999999999999 Cu
   0.5000000000000000    0.3750000000000000    0.4999999999999999 Cu
   0.5000000000000000    0.3750000000000000    0.7500000000000000 Cu
   0.5000000000000000    0.6250000000000000    1.0000000000000000 Cu
   0.5000000000000000    0.6250000000000000    0.2500000000000000 Cu
   0.5000000000000000    0.6250000000000000    0.4999999999999999 Cu
   0.5000000000000000    0.6250000000000000    0.7499999999999999 Cu
   0.5000000000000000    0.8750000000000000    1.0000000000000000 Cu
   0.5000000000000000    0.8750000000000000    0.2500000000000000 Cu
   0.5000000000000000    0.8750000000000000    0.5000000000000000 Cu
   0.5000000000000000    0.8750000000000000    0.7499999999999999 Cu
