Au64
1.0
   4.1712885300000000    0.0000000000000000    0.0000000000000000
  -0.0000000000000000   16.6851541300000008    0.0000000000000000
   0.0000000000000000    0.0000000000000000   16.6851541300000008
Au
64
direct
   0.9697070400000001    0.9915233300000001    0.9997198999999999 Au
   0.9976012300000000    0.0017017900000000    0.2418741300000000 Au
   0.0111744400000000    0.0036980500000000    0.4968311200000000 Au
   0.0202959700000000    0.0088218000000000    0.7436874400000000 Au
   0.0117264700000000    0.2489821500000000    0.0007595400000000 Au
   0.0067460100000000    0.2517421000000000    0.2512924400000000 Au
   0.9881303900000000    0.2524024600000000    0.5065341400000000 Au
   0.0286526200000000    0.2515747200000000    0.7492942100000000 Au
   0.0155065500000000    0.4998744000000000    0.0016564100000000 Au
   0.9567863400000000    0.5013450400000000    0.2472252800000000 Au
   0.9741012099999999    0.5040535600000000    0.5086332599999999 Au
   0.9830126800000001    0.4989897300000000    0.7509847299999999 Au
   0.0017597400000000    0.7439498000000000    0.9864210500000000 Au
   0.0069529100000000    0.7532000000000000    0.2552788700000000 Au
   0.0065294100000000    0.7444771700000000    0.4983037300000000 Au
   0.9931582400000000    0.7521618200000000    0.7562835400000000 Au
   0.0144431800000000    0.1136261700000000    0.1240783700000000 Au
   0.0114432200000000    0.1176866400000000    0.3782165699999999 Au
   0.0170082700000000    0.1189969600000000    0.6197588800000000 Au
   0.0049670900000000    0.1274330400000000    0.8763622900000000 Au
   0.9718475600000001    0.3770315799999999    0.1320921900000000 Au
   0.9923678600000000    0.3783898000000000    0.3764444800000000 Au
   0.0202154300000000    0.3724787400000000    0.6225747300000000 Au
   0.0193939000000000    0.3685584900000000    0.8761677499999999 Au
   0.0294824800000000    0.6259898400000000    0.1345248000000000 Au
   0.9900249200000000    0.6327553900000000    0.3821262799999999 Au
   0.9825326100000001    0.6304632999999999    0.6281290700000000 Au
   0.9820213400000000    0.6245584199999999    0.8720181200000000 Au
   0.0060544800000000    0.8717898200000000    0.1234697600000000 Au
   0.0330799200000000    0.8688682099999999    0.3769058000000000 Au
   0.0036975600000000    0.8779334999999999    0.6237886600000000 Au
   0.9897965200000000    0.8727477999999999    0.8725562699999999 Au
   0.4787152700000001    0.0014156000000000    0.1258300100000000 Au
   0.4918523500000000    0.0011739400000000    0.3626023799999999 Au
   0.5088350100000000    0.9990793500000001    0.6316370700000000 Au
   0.4805090500000000    0.0012966500000000    0.8731703500000000 Au
   0.4861905200000000    0.2442766200000000    0.1219056700000000 Au
   0.5203709200000000    0.2547065600000000    0.3783469800000000 Au
   0.5168097500000000    0.2539473400000000    0.6224780500000000 Au
   0.5128671800000000    0.2532003300000000    0.8742094300000000 Au
   0.5124043000000000    0.4919027100000000    0.1199372200000000 Au
   0.4794945700000001    0.4986081600000000    0.3698784000000000 Au
   0.4882855700000000    0.5068626100000000    0.6280500999999999 Au
   0.4873023200000001    0.5023540799999999    0.8699169899999999 Au
   0.4738886600000000    0.7514784199999999    0.1273002500000000 Au
   0.4839295700000000    0.7616232300000000    0.3706768300000000 Au
   0.4980188500000000    0.7568378200000000    0.6249661700000000 Au
   0.4894417900000000    0.7514431300000000    0.8729740800000000 Au
   0.4661154700000000    0.1153060500000000    0.9942356799999998 Au
   0.5052544500000000    0.1299148600000000    0.2493190600000000 Au
   0.4964048800000000    0.1185709000000000    0.5076734100000000 Au
   0.5032105100000002    0.1294753200000000    0.7541232900000000 Au
   0.5027072800000000    0.3709580800000000    0.9973646800000000 Au
   0.5355729299999999    0.3640796200000000    0.2538171300000000 Au
   0.4941830500000000    0.3805689099999999    0.4965016800000001 Au
   0.4777960200000000    0.3674364700000000    0.7486541799999998 Au
   0.5151993900000000    0.6272885199999999    0.0001433500000000 Au
   0.4904218500000000    0.6266191000000000    0.2479591800000000 Au
   0.4783381200000000    0.6336738699999999    0.5014608699999999 Au
   0.5367102400000000    0.6278175900000000    0.7554725300000000 Au
   0.5271352200000000    0.8674355800000000    0.9970320199999999 Au
   0.5048802100000001    0.8700814399999999    0.2513643600000000 Au
   0.5337165600000000    0.8738399699999999    0.5067774300000000 Au
   0.4832205600000001    0.8789215400000000    0.7502273499999998 Au
